(declare-fun i_1_pqmayo_MAYO_1_ref_uint32_t_blocker () Int)
(declare-fun i_2_pqmayo_MAYO_1_ref_uint64_t_blocker () Int)
(declare-fun i_3_pqmayo_MAYO_1_ref_unsigned_char_blocker () Int)
(declare-fun b_1_path () Bool)
(declare-fun c_1_Global_M () (Array Int Int))
(declare-fun c_2_Global_M () (Array Int Int))
(declare-fun b_2_path () Bool)
(declare-fun c_3_Global_M () (Array Int Int))
(declare-fun b_3_path () Bool)
(declare-fun c_4_Global_M () (Array Int Int))
(declare-fun b_4_path () Bool)
(declare-fun c_5_Global_M () (Array Int Int))
(declare-fun b_5_path () Bool)
(declare-fun c_6_Global_M () (Array Int Int))
(declare-fun b_6_path () Bool)
(declare-fun c_7_Global_M () (Array Int Int))
(declare-fun b_7_path () Bool)
(declare-fun c_8_Global_M () (Array Int Int))
(declare-fun b_8_path () Bool)
(declare-fun c_9_Global_M () (Array Int Int))
(declare-fun b_9_path () Bool)
(declare-fun c_10_Global_M () (Array Int Int))
(declare-fun b_10_path () Bool)
(declare-fun c_11_Global_M () (Array Int Int))
(declare-fun b_11_path () Bool)
(declare-fun c_12_Global_M () (Array Int Int))
(declare-fun b_12_path () Bool)
(declare-fun c_13_Global_M () (Array Int Int))
(declare-fun b_13_path () Bool)
(declare-fun c_14_Global_M () (Array Int Int))
(declare-fun b_14_path () Bool)
(declare-fun c_15_Global_M () (Array Int Int))
(declare-fun b_15_path () Bool)
(declare-fun c_16_Global_M () (Array Int Int))
(declare-fun b_16_path () Bool)
(declare-fun c_17_Global_M () (Array Int Int))
(declare-fun b_17_path () Bool)
(declare-fun c_18_Global_M () (Array Int Int))
(declare-fun b_18_path () Bool)
(declare-fun c_19_Global_M () (Array Int Int))
(declare-fun b_19_path () Bool)
(declare-fun c_20_Global_M () (Array Int Int))
(declare-fun b_20_path () Bool)
(declare-fun c_21_Global_M () (Array Int Int))
(declare-fun b_21_path () Bool)
(declare-fun c_22_Global_M () (Array Int Int))
(declare-fun b_22_path () Bool)
(declare-fun c_23_Global_M () (Array Int Int))
(declare-fun b_23_path () Bool)
(declare-fun c_24_Global_M () (Array Int Int))
(declare-fun b_24_path () Bool)
(declare-fun c_25_Global_M () (Array Int Int))
(declare-fun b_25_path () Bool)
(declare-fun c_26_Global_M () (Array Int Int))
(declare-fun i_12_xor25.masked.i54 () Int)
(declare-fun i_11_ () Int)
(declare-fun i_7_b () Int)
(declare-fun i_8_ () Int)
(declare-fun i_6_a () Int)
(declare-fun i_9_ () Int)
(declare-fun i_10_ () Int)
(declare-fun i_18_xor25.masked.i63 () Int)
(declare-fun i_17_ () Int)
(declare-fun i_14_ () Int)
(declare-fun i_15_ () Int)
(declare-fun i_16_ () Int)
(declare-fun i_24_xor25.masked.i18 () Int)
(declare-fun i_23_ () Int)
(declare-fun i_13_add.ptr.iter1 () Int)
(declare-fun i_20_ () Int)
(declare-fun i_21_ () Int)
(declare-fun i_22_ () Int)
(declare-fun i_30_xor25.masked.i () Int)
(declare-fun i_29_ () Int)
(declare-fun i_19_add.ptr.iter2 () Int)
(declare-fun i_26_ () Int)
(declare-fun i_27_ () Int)
(declare-fun i_28_ () Int)
(declare-fun i_36_xor25.masked.i45 () Int)
(declare-fun i_35_ () Int)
(declare-fun i_25_add.ptr.iter3 () Int)
(declare-fun i_32_ () Int)
(declare-fun i_33_ () Int)
(declare-fun i_34_ () Int)
(declare-fun i_42_xor25.masked.i27 () Int)
(declare-fun i_41_ () Int)
(declare-fun i_31_add.ptr.iter4 () Int)
(declare-fun i_38_ () Int)
(declare-fun i_39_ () Int)
(declare-fun i_40_ () Int)
(declare-fun i_48_xor25.masked.i36 () Int)
(declare-fun i_47_ () Int)
(declare-fun i_37_add.ptr.iter5 () Int)
(declare-fun i_44_ () Int)
(declare-fun i_45_ () Int)
(declare-fun i_46_ () Int)
(declare-fun i_49_ret.0.lcssa () Int)
(declare-fun i_50_ret_val () Int)
(assert (= i_1_pqmayo_MAYO_1_ref_uint32_t_blocker 0))
(assert (= i_2_pqmayo_MAYO_1_ref_uint64_t_blocker 0))
(assert (= i_3_pqmayo_MAYO_1_ref_unsigned_char_blocker 0))
(assert true)
(assert (=> b_1_path (or (and true true))))
(assert (and (=> (and true true) (= c_2_Global_M c_1_Global_M))))
(assert and)
(assert (=> b_2_path (or (and b_1_path true))))
(assert (and (=> (and b_1_path true) (= c_3_Global_M c_2_Global_M))))
(assert and)
(assert (=> b_3_path (or (and b_2_path true))))
(assert (and (=> (and b_2_path true) (= c_4_Global_M c_3_Global_M))))
(assert and)
(assert (=> b_4_path (or (and b_3_path true))))
(assert (and (=> (and b_3_path true) (= c_5_Global_M c_4_Global_M))))
(assert and)
(assert (=> b_5_path (or (and b_4_path true))))
(assert (and (=> (and b_4_path true) (= c_6_Global_M c_5_Global_M))))
(assert and)
(assert (=> b_6_path (or (and b_5_path true))))
(assert (and (=> (and b_5_path true) (= c_7_Global_M c_6_Global_M))))
(assert and)
(assert (=> b_7_path (or (and b_6_path true))))
(assert (and (=> (and b_6_path true) (= c_8_Global_M c_7_Global_M))))
(assert and)
(assert (=> b_8_path (or (and b_7_path true))))
(assert (and (=> (and b_7_path true) (= c_9_Global_M c_8_Global_M))))
(assert and)
(assert (=> b_9_path (or (and b_8_path true))))
(assert (and (=> (and b_8_path true) (= c_10_Global_M c_9_Global_M))))
(assert and)
(assert (=> b_10_path (or (and b_9_path true))))
(assert (and (=> (and b_9_path true) (= c_11_Global_M c_10_Global_M))))
(assert and)
(assert (=> b_11_path (or (and b_10_path true))))
(assert (and (=> (and b_10_path true) (= c_12_Global_M c_11_Global_M))))
(assert and)
(assert (=> b_12_path (or (and b_11_path true))))
(assert (and (=> (and b_11_path true) (= c_13_Global_M c_12_Global_M))))
(assert and)
(assert (=> b_13_path (or (and b_12_path true))))
(assert (and (=> (and b_12_path true) (= c_14_Global_M c_13_Global_M))))
(assert and)
(assert (=> b_14_path (or (and b_13_path true))))
(assert (and (=> (and b_13_path true) (= c_15_Global_M c_14_Global_M))))
(assert and)
(assert (=> b_15_path (or (and b_14_path true))))
(assert (and (=> (and b_14_path true) (= c_16_Global_M c_15_Global_M))))
(assert and)
(assert (=> b_16_path (or (and b_15_path true))))
(assert (and (=> (and b_15_path true) (= c_17_Global_M c_16_Global_M))))
(assert and)
(assert (=> b_17_path (or (and b_16_path true))))
(assert (and (=> (and b_16_path true) (= c_18_Global_M c_17_Global_M))))
(assert and)
(assert (=> b_18_path (or (and b_17_path true))))
(assert (and (=> (and b_17_path true) (= c_19_Global_M c_18_Global_M))))
(assert and)
(assert (=> b_19_path (or (and b_18_path true))))
(assert (and (=> (and b_18_path true) (= c_20_Global_M c_19_Global_M))))
(assert and)
(assert (=> b_20_path (or (and b_19_path true))))
(assert (and (=> (and b_19_path true) (= c_21_Global_M c_20_Global_M))))
(assert and)
(assert (=> b_21_path (or (and b_20_path true))))
(assert (and (=> (and b_20_path true) (= c_22_Global_M c_21_Global_M))))
(assert and)
(assert (=> b_22_path (or (and b_21_path true))))
(assert (and (=> (and b_21_path true) (= c_23_Global_M c_22_Global_M))))
(assert and)
(assert (=> b_23_path (or (and b_22_path true))))
(assert (and (=> (and b_22_path true) (= c_24_Global_M c_23_Global_M))))
(assert and)
(assert (=> b_24_path (or (and b_23_path true))))
(assert (and (=> (and b_23_path true) (= c_25_Global_M c_24_Global_M))))
(assert and)
(assert (=> b_25_path (or (and b_24_path true))))
(assert (and (=> (and b_24_path true) (= c_26_Global_M c_25_Global_M))))
(assert and)
(assert (let ((a!1 (bvslt (bvxor ((_ int2bv 8) (select c_24_Global_M i_6_a))
                         ((_ int2bv 8)
                           i_3_pqmayo_MAYO_1_ref_unsigned_char_blocker))
                  #x00))
      (a!2 (bv2int (bvxor ((_ int2bv 8) (select c_24_Global_M i_6_a))
                          ((_ int2bv 8)
                            i_3_pqmayo_MAYO_1_ref_unsigned_char_blocker))))
      (a!14 (bvslt (bvxor ((_ int2bv 8) (select c_21_Global_M i_6_a))
                          ((_ int2bv 8)
                            i_3_pqmayo_MAYO_1_ref_unsigned_char_blocker))
                   #x00))
      (a!15 (bv2int (bvxor ((_ int2bv 8) (select c_21_Global_M i_6_a))
                           ((_ int2bv 8)
                             i_3_pqmayo_MAYO_1_ref_unsigned_char_blocker))))
      (a!27 (bvslt (bvxor ((_ int2bv 8) (select c_18_Global_M i_6_a))
                          ((_ int2bv 8)
                            i_3_pqmayo_MAYO_1_ref_unsigned_char_blocker))
                   #x00))
      (a!28 (bv2int (bvxor ((_ int2bv 8) (select c_18_Global_M i_6_a))
                           ((_ int2bv 8)
                             i_3_pqmayo_MAYO_1_ref_unsigned_char_blocker))))
      (a!40 (bvslt (bvxor ((_ int2bv 8) (select c_15_Global_M i_6_a))
                          ((_ int2bv 8)
                            i_3_pqmayo_MAYO_1_ref_unsigned_char_blocker))
                   #x00))
      (a!41 (bv2int (bvxor ((_ int2bv 8) (select c_15_Global_M i_6_a))
                           ((_ int2bv 8)
                             i_3_pqmayo_MAYO_1_ref_unsigned_char_blocker))))
      (a!53 (bvslt (bvxor ((_ int2bv 8) (select c_12_Global_M i_6_a))
                          ((_ int2bv 8)
                            i_3_pqmayo_MAYO_1_ref_unsigned_char_blocker))
                   #x00))
      (a!54 (bv2int (bvxor ((_ int2bv 8) (select c_12_Global_M i_6_a))
                           ((_ int2bv 8)
                             i_3_pqmayo_MAYO_1_ref_unsigned_char_blocker))))
      (a!66 (bvslt (bvxor ((_ int2bv 8) (select c_9_Global_M i_6_a))
                          ((_ int2bv 8)
                            i_3_pqmayo_MAYO_1_ref_unsigned_char_blocker))
                   #x00))
      (a!67 (bv2int (bvxor ((_ int2bv 8) (select c_9_Global_M i_6_a))
                           ((_ int2bv 8)
                             i_3_pqmayo_MAYO_1_ref_unsigned_char_blocker))))
      (a!79 (bvslt (bvxor ((_ int2bv 8) (select c_6_Global_M i_6_a))
                          ((_ int2bv 8)
                            i_3_pqmayo_MAYO_1_ref_unsigned_char_blocker))
                   #x00))
      (a!80 (bv2int (bvxor ((_ int2bv 8) (select c_6_Global_M i_6_a))
                           ((_ int2bv 8)
                             i_3_pqmayo_MAYO_1_ref_unsigned_char_blocker)))))
(let ((a!3 (= (rem (ite a!1 (- a!2 256) a!2) 2) 1))
      (a!16 (= (rem (ite a!14 (- a!15 256) a!15) 2) 1))
      (a!29 (= (rem (ite a!27 (- a!28 256) a!28) 2) 1))
      (a!42 (= (rem (ite a!40 (- a!41 256) a!41) 2) 1))
      (a!55 (= (rem (ite a!53 (- a!54 256) a!54) 2) 1))
      (a!68 (= (rem (ite a!66 (- a!67 256) a!67) 2) 1))
      (a!81 (= (rem (ite a!79 (- a!80 256) a!80) 2) 1)))
(let ((a!4 (bvxor ((_ int2bv 8)
                    (ite a!3 (select c_24_Global_M i_37_add.ptr.iter5) 0))
                  ((_ int2bv 8)
                    (* i_44_ (select c_24_Global_M i_37_add.ptr.iter5)))))
      (a!17 (bvxor ((_ int2bv 8)
                     (ite a!16 (select c_21_Global_M i_31_add.ptr.iter4) 0))
                   ((_ int2bv 8)
                     (* i_38_ (select c_21_Global_M i_31_add.ptr.iter4)))))
      (a!30 (bvxor ((_ int2bv 8)
                     (ite a!29 (select c_18_Global_M i_25_add.ptr.iter3) 0))
                   ((_ int2bv 8)
                     (* i_32_ (select c_18_Global_M i_25_add.ptr.iter3)))))
      (a!43 (bvxor ((_ int2bv 8)
                     (ite a!42 (select c_15_Global_M i_19_add.ptr.iter2) 0))
                   ((_ int2bv 8)
                     (* i_26_ (select c_15_Global_M i_19_add.ptr.iter2)))))
      (a!56 (bvxor ((_ int2bv 8)
                     (ite a!55 (select c_12_Global_M i_13_add.ptr.iter1) 0))
                   ((_ int2bv 8)
                     (* i_20_ (select c_12_Global_M i_13_add.ptr.iter1)))))
      (a!69 (bvxor ((_ int2bv 8) (ite a!68 (select c_9_Global_M 5) 0))
                   ((_ int2bv 8) (* i_14_ (select c_9_Global_M 5)))))
      (a!82 (bvxor ((_ int2bv 8) (ite a!81 (select c_6_Global_M i_7_b) 0))
                   ((_ int2bv 8) (* i_8_ (select c_6_Global_M i_7_b))))))
(let ((a!5 ((_ int2bv 8)
             (ite (bvslt a!4 #x00) (- (bv2int a!4) 256) (bv2int a!4))))
      (a!18 ((_ int2bv 8)
              (ite (bvslt a!17 #x00) (- (bv2int a!17) 256) (bv2int a!17))))
      (a!31 ((_ int2bv 8)
              (ite (bvslt a!30 #x00) (- (bv2int a!30) 256) (bv2int a!30))))
      (a!44 ((_ int2bv 8)
              (ite (bvslt a!43 #x00) (- (bv2int a!43) 256) (bv2int a!43))))
      (a!57 ((_ int2bv 8)
              (ite (bvslt a!56 #x00) (- (bv2int a!56) 256) (bv2int a!56))))
      (a!70 ((_ int2bv 8)
              (ite (bvslt a!69 #x00) (- (bv2int a!69) 256) (bv2int a!69))))
      (a!83 ((_ int2bv 8)
              (ite (bvslt a!82 #x00) (- (bv2int a!82) 256) (bv2int a!82)))))
(let ((a!6 (bvxor ((_ int2bv 8)
                    (* i_45_ (select c_24_Global_M i_37_add.ptr.iter5)))
                  a!5))
      (a!19 (bvxor ((_ int2bv 8)
                     (* i_39_ (select c_21_Global_M i_31_add.ptr.iter4)))
                   a!18))
      (a!32 (bvxor ((_ int2bv 8)
                     (* i_33_ (select c_18_Global_M i_25_add.ptr.iter3)))
                   a!31))
      (a!45 (bvxor ((_ int2bv 8)
                     (* i_27_ (select c_15_Global_M i_19_add.ptr.iter2)))
                   a!44))
      (a!58 (bvxor ((_ int2bv 8)
                     (* i_21_ (select c_12_Global_M i_13_add.ptr.iter1)))
                   a!57))
      (a!71 (bvxor ((_ int2bv 8) (* i_15_ (select c_9_Global_M 5))) a!70))
      (a!84 (bvxor ((_ int2bv 8) (* i_9_ (select c_6_Global_M i_7_b))) a!83)))
(let ((a!7 ((_ int2bv 8)
             (ite (bvslt a!6 #x00) (- (bv2int a!6) 256) (bv2int a!6))))
      (a!20 ((_ int2bv 8)
              (ite (bvslt a!19 #x00) (- (bv2int a!19) 256) (bv2int a!19))))
      (a!33 ((_ int2bv 8)
              (ite (bvslt a!32 #x00) (- (bv2int a!32) 256) (bv2int a!32))))
      (a!46 ((_ int2bv 8)
              (ite (bvslt a!45 #x00) (- (bv2int a!45) 256) (bv2int a!45))))
      (a!59 ((_ int2bv 8)
              (ite (bvslt a!58 #x00) (- (bv2int a!58) 256) (bv2int a!58))))
      (a!72 ((_ int2bv 8)
              (ite (bvslt a!71 #x00) (- (bv2int a!71) 256) (bv2int a!71))))
      (a!85 ((_ int2bv 8)
              (ite (bvslt a!84 #x00) (- (bv2int a!84) 256) (bv2int a!84)))))
(let ((a!8 (bvxor ((_ int2bv 8)
                    (* i_46_ (select c_24_Global_M i_37_add.ptr.iter5)))
                  a!7))
      (a!21 (bvxor ((_ int2bv 8)
                     (* i_40_ (select c_21_Global_M i_31_add.ptr.iter4)))
                   a!20))
      (a!34 (bvxor ((_ int2bv 8)
                     (* i_34_ (select c_18_Global_M i_25_add.ptr.iter3)))
                   a!33))
      (a!47 (bvxor ((_ int2bv 8)
                     (* i_28_ (select c_15_Global_M i_19_add.ptr.iter2)))
                   a!46))
      (a!60 (bvxor ((_ int2bv 8)
                     (* i_22_ (select c_12_Global_M i_13_add.ptr.iter1)))
                   a!59))
      (a!73 (bvxor ((_ int2bv 8) (* i_16_ (select c_9_Global_M 5))) a!72))
      (a!86 (bvxor ((_ int2bv 8) (* i_10_ (select c_6_Global_M i_7_b))) a!85)))
(let ((a!9 (div (ite (bvslt a!8 #x00) (- (bv2int a!8) 256) (bv2int a!8))
                (to_int (^ 2 4))))
      (a!22 (div (ite (bvslt a!21 #x00) (- (bv2int a!21) 256) (bv2int a!21))
                 (to_int (^ 2 4))))
      (a!35 (div (ite (bvslt a!34 #x00) (- (bv2int a!34) 256) (bv2int a!34))
                 (to_int (^ 2 4))))
      (a!48 (div (ite (bvslt a!47 #x00) (- (bv2int a!47) 256) (bv2int a!47))
                 (to_int (^ 2 4))))
      (a!61 (div (ite (bvslt a!60 #x00) (- (bv2int a!60) 256) (bv2int a!60))
                 (to_int (^ 2 4))))
      (a!74 (div (ite (bvslt a!73 #x00) (- (bv2int a!73) 256) (bv2int a!73))
                 (to_int (^ 2 4))))
      (a!87 (div (ite (bvslt a!86 #x00) (- (bv2int a!86) 256) (bv2int a!86))
                 (to_int (^ 2 4)))))
(let ((a!10 (- (bv2int (bvxor ((_ int2bv 8) a!9) ((_ int2bv 8) i_47_))) 256))
      (a!23 (- (bv2int (bvxor ((_ int2bv 8) a!22) ((_ int2bv 8) i_41_))) 256))
      (a!36 (- (bv2int (bvxor ((_ int2bv 8) a!35) ((_ int2bv 8) i_35_))) 256))
      (a!49 (- (bv2int (bvxor ((_ int2bv 8) a!48) ((_ int2bv 8) i_29_))) 256))
      (a!62 (- (bv2int (bvxor ((_ int2bv 8) a!61) ((_ int2bv 8) i_23_))) 256))
      (a!75 (- (bv2int (bvxor ((_ int2bv 8) a!74) ((_ int2bv 8) i_17_))) 256))
      (a!88 (- (bv2int (bvxor ((_ int2bv 8) a!87) ((_ int2bv 8) i_11_))) 256)))
(let ((a!11 (ite (bvslt (bvxor ((_ int2bv 8) a!9) ((_ int2bv 8) i_47_)) #x00)
                 a!10
                 (bv2int (bvxor ((_ int2bv 8) a!9) ((_ int2bv 8) i_47_)))))
      (a!24 (ite (bvslt (bvxor ((_ int2bv 8) a!22) ((_ int2bv 8) i_41_)) #x00)
                 a!23
                 (bv2int (bvxor ((_ int2bv 8) a!22) ((_ int2bv 8) i_41_)))))
      (a!37 (ite (bvslt (bvxor ((_ int2bv 8) a!35) ((_ int2bv 8) i_35_)) #x00)
                 a!36
                 (bv2int (bvxor ((_ int2bv 8) a!35) ((_ int2bv 8) i_35_)))))
      (a!50 (ite (bvslt (bvxor ((_ int2bv 8) a!48) ((_ int2bv 8) i_29_)) #x00)
                 a!49
                 (bv2int (bvxor ((_ int2bv 8) a!48) ((_ int2bv 8) i_29_)))))
      (a!63 (ite (bvslt (bvxor ((_ int2bv 8) a!61) ((_ int2bv 8) i_23_)) #x00)
                 a!62
                 (bv2int (bvxor ((_ int2bv 8) a!61) ((_ int2bv 8) i_23_)))))
      (a!76 (ite (bvslt (bvxor ((_ int2bv 8) a!74) ((_ int2bv 8) i_17_)) #x00)
                 a!75
                 (bv2int (bvxor ((_ int2bv 8) a!74) ((_ int2bv 8) i_17_)))))
      (a!89 (ite (bvslt (bvxor ((_ int2bv 8) a!87) ((_ int2bv 8) i_11_)) #x00)
                 a!88
                 (bv2int (bvxor ((_ int2bv 8) a!87) ((_ int2bv 8) i_11_))))))
(let ((a!12 (- (bv2int (bvxor ((_ int2bv 8) a!11)
                              ((_ int2bv 8) i_48_xor25.masked.i36)))
               256))
      (a!25 (- (bv2int (bvxor ((_ int2bv 8) a!24)
                              ((_ int2bv 8) i_42_xor25.masked.i27)))
               256))
      (a!38 (- (bv2int (bvxor ((_ int2bv 8) a!37)
                              ((_ int2bv 8) i_36_xor25.masked.i45)))
               256))
      (a!51 (- (bv2int (bvxor ((_ int2bv 8) a!50)
                              ((_ int2bv 8) i_30_xor25.masked.i)))
               256))
      (a!64 (- (bv2int (bvxor ((_ int2bv 8) a!63)
                              ((_ int2bv 8) i_24_xor25.masked.i18)))
               256))
      (a!77 (- (bv2int (bvxor ((_ int2bv 8) a!76)
                              ((_ int2bv 8) i_18_xor25.masked.i63)))
               256))
      (a!90 (- (bv2int (bvxor ((_ int2bv 8) a!89)
                              ((_ int2bv 8) i_12_xor25.masked.i54)))
               256)))
(let ((a!13 (ite (bvslt (bvxor ((_ int2bv 8) a!11)
                               ((_ int2bv 8) i_48_xor25.masked.i36))
                        #x00)
                 a!12
                 (bv2int (bvxor ((_ int2bv 8) a!11)
                                ((_ int2bv 8) i_48_xor25.masked.i36)))))
      (a!26 (ite (bvslt (bvxor ((_ int2bv 8) a!24)
                               ((_ int2bv 8) i_42_xor25.masked.i27))
                        #x00)
                 a!25
                 (bv2int (bvxor ((_ int2bv 8) a!24)
                                ((_ int2bv 8) i_42_xor25.masked.i27)))))
      (a!39 (ite (bvslt (bvxor ((_ int2bv 8) a!37)
                               ((_ int2bv 8) i_36_xor25.masked.i45))
                        #x00)
                 a!38
                 (bv2int (bvxor ((_ int2bv 8) a!37)
                                ((_ int2bv 8) i_36_xor25.masked.i45)))))
      (a!52 (ite (bvslt (bvxor ((_ int2bv 8) a!50)
                               ((_ int2bv 8) i_30_xor25.masked.i))
                        #x00)
                 a!51
                 (bv2int (bvxor ((_ int2bv 8) a!50)
                                ((_ int2bv 8) i_30_xor25.masked.i)))))
      (a!65 (ite (bvslt (bvxor ((_ int2bv 8) a!63)
                               ((_ int2bv 8) i_24_xor25.masked.i18))
                        #x00)
                 a!64
                 (bv2int (bvxor ((_ int2bv 8) a!63)
                                ((_ int2bv 8) i_24_xor25.masked.i18)))))
      (a!78 (ite (bvslt (bvxor ((_ int2bv 8) a!76)
                               ((_ int2bv 8) i_18_xor25.masked.i63))
                        #x00)
                 a!77
                 (bv2int (bvxor ((_ int2bv 8) a!76)
                                ((_ int2bv 8) i_18_xor25.masked.i63)))))
      (a!91 (ite (bvslt (bvxor ((_ int2bv 8) a!89)
                               ((_ int2bv 8) i_12_xor25.masked.i54))
                        #x00)
                 a!90
                 (bv2int (bvxor ((_ int2bv 8) a!89)
                                ((_ int2bv 8) i_12_xor25.masked.i54))))))
(let ((a!92 (- (bv2int (bvxor ((_ int2bv 8) a!78) ((_ int2bv 8) a!91))) 256)))
(let ((a!93 (ite (bvslt (bvxor ((_ int2bv 8) a!78) ((_ int2bv 8) a!91)) #x00)
                 a!92
                 (bv2int (bvxor ((_ int2bv 8) a!78) ((_ int2bv 8) a!91))))))
(let ((a!94 (- (bv2int (bvxor ((_ int2bv 8) a!65) ((_ int2bv 8) a!93))) 256)))
(let ((a!95 (ite (bvslt (bvxor ((_ int2bv 8) a!65) ((_ int2bv 8) a!93)) #x00)
                 a!94
                 (bv2int (bvxor ((_ int2bv 8) a!65) ((_ int2bv 8) a!93))))))
(let ((a!96 (- (bv2int (bvxor ((_ int2bv 8) a!52) ((_ int2bv 8) a!95))) 256)))
(let ((a!97 (ite (bvslt (bvxor ((_ int2bv 8) a!52) ((_ int2bv 8) a!95)) #x00)
                 a!96
                 (bv2int (bvxor ((_ int2bv 8) a!52) ((_ int2bv 8) a!95))))))
(let ((a!98 (- (bv2int (bvxor ((_ int2bv 8) a!39) ((_ int2bv 8) a!97))) 256)))
(let ((a!99 (ite (bvslt (bvxor ((_ int2bv 8) a!39) ((_ int2bv 8) a!97)) #x00)
                 a!98
                 (bv2int (bvxor ((_ int2bv 8) a!39) ((_ int2bv 8) a!97))))))
(let ((a!100 (- (bv2int (bvxor ((_ int2bv 8) a!26) ((_ int2bv 8) a!99))) 256)))
(let ((a!101 (ite (bvslt (bvxor ((_ int2bv 8) a!26) ((_ int2bv 8) a!99)) #x00)
                  a!100
                  (bv2int (bvxor ((_ int2bv 8) a!26) ((_ int2bv 8) a!99))))))
(let ((a!102 (- (bv2int (bvxor ((_ int2bv 8) a!13) ((_ int2bv 8) a!101))) 256)))
(let ((a!103 (ite (bvslt (bvxor ((_ int2bv 8) a!13) ((_ int2bv 8) a!101)) #x00)
                  a!102
                  (bv2int (bvxor ((_ int2bv 8) a!13) ((_ int2bv 8) a!101))))))
  (and (=> (and b_24_path true) (= i_49_ret.0.lcssa a!103))))))))))))))))))))))))))))
(assert (= i_50_ret_val i_49_ret.0.lcssa))
(assert (not true))
(check-sat)
